100110110000110011011001110100110111101011011101110010000110011000100000010110001001011110011000100100011100010101011111010111000000000101000011000011111011000110101111001110000001000011111110010111100001001001001110011001101111000000110110100010011000111110011000010111011110011010110100010001011010110111101000101101101011000110100100001000111110011011011011001011010101100111111010000101001110101100001110011010000111000010110001101111110011011010011011011000011010000101000110110001000001101001100100101110100101110111000000101000011001100110101000101010111001111011001111001000101111000010101100100110011101101011011011100111011001110101111011001010101101111110001100000111110000001001111000010000100011100000011000111101010110101110011001000011101000100111111111101101110100110000100001001010000001100111111100011001011110111100010011011101100011010110010010011000100101001010011100101010111000100000000000111001101110000101100110110000110001010000001010011011110100111000001001101101100011111000010110101010111000101001010101001111101100000111000001000000001000110110011101000000010111010011011010100010011000001000001111101101010010110010011110